c *********************************
c * Circuit generated by BenCGen
c *
c * Parity_99
c *
c * Ports with 1 gate(s): 1
c * Ports with 2 gate(s): 99
c * Total gates: 100
c *********************************
p cnf 199 397
1 102 0
-1 -102 0
1 -101 0
102 -101 0
-1 -102 101 0
1 2 -103 0
-1 2 103 0
1 -2 103 0
-1 -2 -103 0
3 4 -104 0
-3 4 104 0
3 -4 104 0
-3 -4 -104 0
5 6 -105 0
-5 6 105 0
5 -6 105 0
-5 -6 -105 0
7 8 -106 0
-7 8 106 0
7 -8 106 0
-7 -8 -106 0
9 10 -107 0
-9 10 107 0
9 -10 107 0
-9 -10 -107 0
11 12 -108 0
-11 12 108 0
11 -12 108 0
-11 -12 -108 0
13 14 -109 0
-13 14 109 0
13 -14 109 0
-13 -14 -109 0
15 16 -110 0
-15 16 110 0
15 -16 110 0
-15 -16 -110 0
17 18 -111 0
-17 18 111 0
17 -18 111 0
-17 -18 -111 0
19 20 -112 0
-19 20 112 0
19 -20 112 0
-19 -20 -112 0
21 22 -113 0
-21 22 113 0
21 -22 113 0
-21 -22 -113 0
23 24 -114 0
-23 24 114 0
23 -24 114 0
-23 -24 -114 0
25 26 -115 0
-25 26 115 0
25 -26 115 0
-25 -26 -115 0
27 28 -116 0
-27 28 116 0
27 -28 116 0
-27 -28 -116 0
29 30 -117 0
-29 30 117 0
29 -30 117 0
-29 -30 -117 0
31 32 -118 0
-31 32 118 0
31 -32 118 0
-31 -32 -118 0
33 34 -119 0
-33 34 119 0
33 -34 119 0
-33 -34 -119 0
35 36 -120 0
-35 36 120 0
35 -36 120 0
-35 -36 -120 0
37 38 -121 0
-37 38 121 0
37 -38 121 0
-37 -38 -121 0
39 40 -122 0
-39 40 122 0
39 -40 122 0
-39 -40 -122 0
41 42 -123 0
-41 42 123 0
41 -42 123 0
-41 -42 -123 0
43 44 -124 0
-43 44 124 0
43 -44 124 0
-43 -44 -124 0
45 46 -125 0
-45 46 125 0
45 -46 125 0
-45 -46 -125 0
47 48 -126 0
-47 48 126 0
47 -48 126 0
-47 -48 -126 0
49 50 -127 0
-49 50 127 0
49 -50 127 0
-49 -50 -127 0
51 52 -128 0
-51 52 128 0
51 -52 128 0
-51 -52 -128 0
53 54 -129 0
-53 54 129 0
53 -54 129 0
-53 -54 -129 0
55 56 -130 0
-55 56 130 0
55 -56 130 0
-55 -56 -130 0
57 58 -131 0
-57 58 131 0
57 -58 131 0
-57 -58 -131 0
59 60 -132 0
-59 60 132 0
59 -60 132 0
-59 -60 -132 0
61 62 -133 0
-61 62 133 0
61 -62 133 0
-61 -62 -133 0
63 64 -134 0
-63 64 134 0
63 -64 134 0
-63 -64 -134 0
65 66 -135 0
-65 66 135 0
65 -66 135 0
-65 -66 -135 0
67 68 -136 0
-67 68 136 0
67 -68 136 0
-67 -68 -136 0
69 70 -137 0
-69 70 137 0
69 -70 137 0
-69 -70 -137 0
71 72 -138 0
-71 72 138 0
71 -72 138 0
-71 -72 -138 0
73 74 -139 0
-73 74 139 0
73 -74 139 0
-73 -74 -139 0
75 76 -140 0
-75 76 140 0
75 -76 140 0
-75 -76 -140 0
77 78 -141 0
-77 78 141 0
77 -78 141 0
-77 -78 -141 0
79 80 -142 0
-79 80 142 0
79 -80 142 0
-79 -80 -142 0
81 82 -143 0
-81 82 143 0
81 -82 143 0
-81 -82 -143 0
83 84 -144 0
-83 84 144 0
83 -84 144 0
-83 -84 -144 0
85 86 -145 0
-85 86 145 0
85 -86 145 0
-85 -86 -145 0
87 88 -146 0
-87 88 146 0
87 -88 146 0
-87 -88 -146 0
89 90 -147 0
-89 90 147 0
89 -90 147 0
-89 -90 -147 0
91 92 -148 0
-91 92 148 0
91 -92 148 0
-91 -92 -148 0
93 94 -149 0
-93 94 149 0
93 -94 149 0
-93 -94 -149 0
95 96 -150 0
-95 96 150 0
95 -96 150 0
-95 -96 -150 0
97 98 -151 0
-97 98 151 0
97 -98 151 0
-97 -98 -151 0
103 104 -152 0
-103 104 152 0
103 -104 152 0
-103 -104 -152 0
105 106 -153 0
-105 106 153 0
105 -106 153 0
-105 -106 -153 0
107 108 -154 0
-107 108 154 0
107 -108 154 0
-107 -108 -154 0
109 110 -155 0
-109 110 155 0
109 -110 155 0
-109 -110 -155 0
111 112 -156 0
-111 112 156 0
111 -112 156 0
-111 -112 -156 0
113 114 -157 0
-113 114 157 0
113 -114 157 0
-113 -114 -157 0
115 116 -158 0
-115 116 158 0
115 -116 158 0
-115 -116 -158 0
117 118 -159 0
-117 118 159 0
117 -118 159 0
-117 -118 -159 0
119 120 -160 0
-119 120 160 0
119 -120 160 0
-119 -120 -160 0
121 122 -161 0
-121 122 161 0
121 -122 161 0
-121 -122 -161 0
123 124 -162 0
-123 124 162 0
123 -124 162 0
-123 -124 -162 0
125 126 -163 0
-125 126 163 0
125 -126 163 0
-125 -126 -163 0
127 128 -164 0
-127 128 164 0
127 -128 164 0
-127 -128 -164 0
129 130 -165 0
-129 130 165 0
129 -130 165 0
-129 -130 -165 0
131 132 -166 0
-131 132 166 0
131 -132 166 0
-131 -132 -166 0
133 134 -167 0
-133 134 167 0
133 -134 167 0
-133 -134 -167 0
135 136 -168 0
-135 136 168 0
135 -136 168 0
-135 -136 -168 0
137 138 -169 0
-137 138 169 0
137 -138 169 0
-137 -138 -169 0
139 140 -170 0
-139 140 170 0
139 -140 170 0
-139 -140 -170 0
141 142 -171 0
-141 142 171 0
141 -142 171 0
-141 -142 -171 0
143 144 -172 0
-143 144 172 0
143 -144 172 0
-143 -144 -172 0
145 146 -173 0
-145 146 173 0
145 -146 173 0
-145 -146 -173 0
147 148 -174 0
-147 148 174 0
147 -148 174 0
-147 -148 -174 0
149 150 -175 0
-149 150 175 0
149 -150 175 0
-149 -150 -175 0
151 99 -176 0
-151 99 176 0
151 -99 176 0
-151 -99 -176 0
152 153 -177 0
-152 153 177 0
152 -153 177 0
-152 -153 -177 0
154 155 -178 0
-154 155 178 0
154 -155 178 0
-154 -155 -178 0
156 157 -179 0
-156 157 179 0
156 -157 179 0
-156 -157 -179 0
158 159 -180 0
-158 159 180 0
158 -159 180 0
-158 -159 -180 0
160 161 -181 0
-160 161 181 0
160 -161 181 0
-160 -161 -181 0
162 163 -182 0
-162 163 182 0
162 -163 182 0
-162 -163 -182 0
164 165 -183 0
-164 165 183 0
164 -165 183 0
-164 -165 -183 0
166 167 -184 0
-166 167 184 0
166 -167 184 0
-166 -167 -184 0
168 169 -185 0
-168 169 185 0
168 -169 185 0
-168 -169 -185 0
170 171 -186 0
-170 171 186 0
170 -171 186 0
-170 -171 -186 0
172 173 -187 0
-172 173 187 0
172 -173 187 0
-172 -173 -187 0
174 175 -188 0
-174 175 188 0
174 -175 188 0
-174 -175 -188 0
177 178 -189 0
-177 178 189 0
177 -178 189 0
-177 -178 -189 0
179 180 -190 0
-179 180 190 0
179 -180 190 0
-179 -180 -190 0
181 182 -191 0
-181 182 191 0
181 -182 191 0
-181 -182 -191 0
183 184 -192 0
-183 184 192 0
183 -184 192 0
-183 -184 -192 0
185 186 -193 0
-185 186 193 0
185 -186 193 0
-185 -186 -193 0
187 188 -194 0
-187 188 194 0
187 -188 194 0
-187 -188 -194 0
189 190 -195 0
-189 190 195 0
189 -190 195 0
-189 -190 -195 0
191 192 -196 0
-191 192 196 0
191 -192 196 0
-191 -192 -196 0
193 194 -197 0
-193 194 197 0
193 -194 197 0
-193 -194 -197 0
195 196 -198 0
-195 196 198 0
195 -196 198 0
-195 -196 -198 0
197 176 -199 0
-197 176 199 0
197 -176 199 0
-197 -176 -199 0
198 199 -100 0
-198 199 100 0
198 -199 100 0
-198 -199 -100 0
